(set-logic QF_UF)
(declare-fun A2 () Bool)
(declare-fun A3 () Bool)
(declare-fun A4 () Bool)
(declare-fun A5 () Bool)
(declare-fun A6 () Bool)
(declare-fun A7 () Bool)
(declare-fun A8 () Bool)
(declare-fun A9 () Bool)
(declare-fun A10 () Bool)
(declare-fun A11 () Bool)
(declare-fun A12 () Bool)
(declare-fun A13 () Bool)
(declare-fun A14 () Bool)
(declare-fun A15 () Bool)
(declare-fun A16 () Bool)
(declare-fun A17 () Bool)
(declare-fun A18 () Bool)
(declare-fun A19 () Bool)
(declare-fun A20 () Bool)
(declare-fun A21 () Bool)
(declare-fun A22 () Bool)
(declare-fun A23 () Bool)
(declare-fun A24 () Bool)
(assert (let ((.def_0 (not A8))) (let ((.def_1 (not A13))) (let ((.def_2 (and .def_1 .def_0))) (let ((.def_3 (or A12 A14))) (let ((.def_4 (not .def_3))) (let ((.def_5 (= .def_4 .def_2))) (let ((.def_6 (not .def_5))) (let ((.def_7 (or A22 A12))) (let ((.def_8 (not .def_7))) (let ((.def_9 (not A14))) (let ((.def_10 (and .def_9 .def_1))) (let ((.def_11 (or .def_10 .def_8))) (let ((.def_12 (not .def_11))) (let ((.def_13 (or .def_12 .def_6))) (let ((.def_14 (not .def_13))) (let ((.def_15 (not A15))) (let ((.def_16 (or A8 .def_15))) (let ((.def_17 (not A6))) (let ((.def_18 (not A4))) (let ((.def_19 (or .def_18 .def_17))) (let ((.def_20 (and .def_19 .def_16))) (let ((.def_21 (or A18 A24))) (let ((.def_22 (not A10))) (let ((.def_23 (not A24))) (let ((.def_24 (and .def_23 .def_22))) (let ((.def_25 (not .def_24))) (let ((.def_26 (and .def_25 .def_21))) (let ((.def_27 (not .def_26))) (let ((.def_28 (or .def_27 .def_20))) (let ((.def_29 (not .def_28))) (let ((.def_30 (and .def_29 .def_14))) (let ((.def_31 (or A4 A18))) (let ((.def_32 (not .def_31))) (let ((.def_33 (or A17 A14))) (let ((.def_34 (not .def_33))) (let ((.def_35 (or .def_34 .def_32))) (let ((.def_36 (not A19))) (let ((.def_37 (= A5 .def_36))) (let ((.def_38 (or A19 .def_36))) (let ((.def_39 (not .def_38))) (let ((.def_40 (or .def_39 .def_37))) (let ((.def_41 (and .def_40 .def_35))) (let ((.def_42 (not .def_41))) (let ((.def_43 (= .def_1 .def_9))) (let ((.def_44 (not .def_43))) (let ((.def_45 (not A12))) (let ((.def_46 (and .def_45 .def_36))) (let ((.def_47 (or .def_46 .def_44))) (let ((.def_48 (or A20 A13))) (let ((.def_49 (not .def_48))) (let ((.def_50 (not A16))) (let ((.def_51 (= .def_18 .def_50))) (let ((.def_52 (not .def_51))) (let ((.def_53 (or .def_52 .def_49))) (let ((.def_54 (not .def_53))) (let ((.def_55 (and .def_54 .def_47))) (let ((.def_56 (not .def_55))) (let ((.def_57 (or .def_56 .def_42))) (let ((.def_58 (or .def_57 .def_30))) (let ((.def_59 (and A3 .def_1))) (let ((.def_60 (not A3))) (let ((.def_61 (or A7 .def_60))) (let ((.def_62 (not .def_61))) (let ((.def_63 (or .def_62 .def_59))) (let ((.def_64 (not .def_63))) (let ((.def_65 (and .def_60 A8))) (let ((.def_66 (= .def_45 A17))) (let ((.def_67 (or .def_66 .def_65))) (let ((.def_68 (not .def_67))) (let ((.def_69 (and .def_68 .def_64))) (let ((.def_70 (not .def_69))) (let ((.def_71 (= A22 A16))) (let ((.def_72 (or .def_36 .def_60))) (let ((.def_73 (and .def_72 .def_71))) (let ((.def_74 (not A20))) (let ((.def_75 (not A9))) (let ((.def_76 (or .def_75 .def_74))) (let ((.def_77 (not .def_76))) (let ((.def_78 (not A5))) (let ((.def_79 (and .def_78 A17))) (let ((.def_80 (or .def_79 .def_77))) (let ((.def_81 (and .def_80 .def_73))) (let ((.def_82 (not .def_81))) (let ((.def_83 (and .def_82 .def_70))) (let ((.def_84 (not .def_83))) (let ((.def_85 (and A10 .def_36))) (let ((.def_86 (or .def_45 A18))) (let ((.def_87 (not .def_86))) (let ((.def_88 (or .def_87 .def_85))) (let ((.def_89 (and .def_50 .def_74))) (let ((.def_90 (not .def_89))) (let ((.def_91 (not A17))) (let ((.def_92 (= .def_91 A18))) (let ((.def_93 (or .def_92 .def_90))) (let ((.def_94 (and .def_93 .def_88))) (let ((.def_95 (not .def_94))) (let ((.def_96 (not A2))) (let ((.def_97 (= A21 .def_96))) (let ((.def_98 (not .def_97))) (let ((.def_99 (or .def_74 A5))) (let ((.def_100 (or .def_99 .def_98))) (let ((.def_101 (not .def_100))) (let ((.def_102 (= A11 A23))) (let ((.def_103 (not .def_102))) (let ((.def_104 (or .def_78 A17))) (let ((.def_105 (not .def_104))) (let ((.def_106 (and .def_105 .def_103))) (let ((.def_107 (not .def_106))) (let ((.def_108 (or .def_107 .def_101))) (let ((.def_109 (not .def_108))) (let ((.def_110 (and .def_109 .def_95))) (let ((.def_111 (and .def_110 .def_84))) (let ((.def_112 (not .def_111))) (let ((.def_113 (or .def_112 .def_58))) (let ((.def_114 (not .def_113))) .def_114))))))))))))))))))))))))))))))))))))))))))))))))))))))))))))))))))))))))))))))))))))))))))))))))))))))))))))))))))))
(check-sat)
